c WARNING: for repeatability, setting FPU to use double precision
d VARIABLES            27129        
d CONSTRAINTS          95793        
c ============================[ Problem Statistics ]=============================
c |                                                                             |
c |  Number of variables:         27129                                         |
c |  Number of clauses:           95793                                         |
c |  Parse time:                   0.01 s                                       |
c |                                                                             |
c ============================[ Search Statistics ]==============================
c | Conflicts |          ORIGINAL         |          LEARNT          | Progress |
c |           |    Vars  Clauses Literals |    Limit  Clauses Lit/Cl |          |
c ===============================================================================
c |       100 |   16419    66957   165346 |    24550      100     32 | 39.478 % |
c |       250 |   16419    66957   165346 |    27005      250     75 | 39.478 % |
c |       475 |   16419    66957   165346 |    29706      475     87 | 39.478 % |
c |       812 |   16419    66957   165346 |    32677      812     97 | 39.478 % |
c |      1318 |   16419    66957   165346 |    35944     1318    110 | 39.478 % |
c |      2077 |   16419    66957   165346 |    39539     2077    117 | 39.478 % |
c |      3216 |   16419    66957   165346 |    43493     3216    119 | 39.478 % |
c |      4924 |   16419    66957   165346 |    47842     4924    115 | 39.478 % |
c |      7486 |   16419    66957   165346 |    52627     7486    118 | 39.478 % |
c |     11330 |   16419    66957   165346 |    57889    11330    116 | 39.478 % |
c |     17096 |   16419    66957   165346 |    63678    17096    116 | 39.478 % |
c |     25745 |   16419    66957   165346 |    70046    25745    111 | 39.478 % |
c |     38719 |   16419    66957   165346 |    77051    38719    107 | 39.478 % |
c ===============================================================================
c restarts              : 127
c conflicts             : 42202          (3226 /sec)
c decisions             : 85655          (0.00 % random) (6548 /sec)
c propagations          : 52720951       (4030402 /sec)
c conflict literals     : 4423995        (49.51 % deleted)
d RESTARTS             127
d FAILURES             42202        
d NODES                85655        
d BACKTRACKS           85655        
d PROPAGATIONS         52720951     
d NOGOODSIZE           104.83 
d MEMORY               34.00 
d TIME                 13.0808 

s UNSATISFIABLE
